Results/Experiment 2 Results/New Benchmark/output_p1_0.25_p2_0.00_n_40_00.lp
clingo version 5.4.0
Reading from tempSRTISolver.lp ...
Solving...
Answer: 1
matched(2,3) matched(6,7) matched(1,8) matched(9,12) matched(17,16) matched(16,17) matched(14,18) matched(23,22) matched(22,23) matched(28,25) matched(24,26) matched(21,27) matched(27,21) matched(29,30) matched(32,31) matched(31,32) matched(30,29) matched(36,34) matched(35,37) matched(33,39) matched(38,40) matched(5,4) matched(7,6) matched(11,10) matched(12,9) matched(19,15) matched(15,19) matched(26,24) matched(25,28) matched(34,36) matched(40,38) matched(3,2) matched(4,5) matched(8,1) matched(10,11) matched(39,33) matched(18,14) matched(20,13) matched(37,35) matched(13,20)
Optimization: 394
Answer: 2
matched(2,3) matched(6,7) matched(1,8) matched(9,12) matched(17,16) matched(16,17) matched(14,18) matched(23,22) matched(22,23) matched(28,25) matched(24,26) matched(21,27) matched(27,21) matched(29,30) matched(32,31) matched(31,32) matched(30,29) matched(36,34) matched(35,37) matched(38,39) matched(33,40) matched(5,4) matched(7,6) matched(11,10) matched(12,9) matched(19,15) matched(15,19) matched(26,24) matched(25,28) matched(34,36) matched(39,38) matched(3,2) matched(4,5) matched(8,1) matched(10,11) matched(40,33) matched(18,14) matched(20,13) matched(37,35) matched(13,20)
Optimization: 384
Answer: 3
matched(2,3) matched(6,7) matched(1,8) matched(9,12) matched(18,16) matched(20,17) matched(16,18) matched(24,22) matched(25,23) matched(23,25) matched(27,26) matched(26,27) matched(28,21) matched(29,30) matched(32,31) matched(31,32) matched(30,29) matched(35,34) matched(36,37) matched(33,39) matched(38,40) matched(5,4) matched(7,6) matched(11,10) matched(12,9) matched(14,15) matched(13,19) matched(22,24) matched(21,28) matched(37,36) matched(40,38) matched(3,2) matched(4,5) matched(8,1) matched(10,11) matched(39,33) matched(15,14) matched(19,13) matched(34,35) matched(17,20)
Optimization: 382
Answer: 4
matched(2,3) matched(6,7) matched(1,8) matched(9,12) matched(18,16) matched(20,17) matched(16,18) matched(24,22) matched(25,23) matched(23,25) matched(27,26) matched(26,27) matched(28,21) matched(29,30) matched(32,31) matched(31,32) matched(30,29) matched(35,34) matched(36,37) matched(38,39) matched(33,40) matched(5,4) matched(7,6) matched(11,10) matched(12,9) matched(14,15) matched(13,19) matched(22,24) matched(21,28) matched(37,36) matched(39,38) matched(3,2) matched(4,5) matched(8,1) matched(10,11) matched(40,33) matched(15,14) matched(19,13) matched(34,35) matched(17,20)
Optimization: 372
Answer: 5
matched(2,3) matched(6,7) matched(1,8) matched(9,12) matched(18,16) matched(20,17) matched(16,18) matched(23,22) matched(22,23) matched(28,25) matched(24,26) matched(21,27) matched(27,21) matched(29,30) matched(32,31) matched(31,32) matched(30,29) matched(35,34) matched(36,37) matched(38,39) matched(33,40) matched(5,4) matched(7,6) matched(11,10) matched(12,9) matched(14,15) matched(13,19) matched(26,24) matched(25,28) matched(37,36) matched(39,38) matched(3,2) matched(4,5) matched(8,1) matched(10,11) matched(40,33) matched(15,14) matched(19,13) matched(34,35) matched(17,20)
Optimization: 370
Answer: 6
matched(2,3) matched(1,7) matched(5,8) matched(9,12) matched(18,16) matched(20,17) matched(16,18) matched(24,22) matched(25,23) matched(23,25) matched(27,26) matched(26,27) matched(28,21) matched(29,30) matched(32,31) matched(31,32) matched(30,29) matched(35,34) matched(36,37) matched(38,39) matched(33,40) matched(6,4) matched(4,6) matched(11,10) matched(12,9) matched(14,15) matched(13,19) matched(22,24) matched(21,28) matched(37,36) matched(39,38) matched(3,2) matched(8,5) matched(7,1) matched(10,11) matched(40,33) matched(15,14) matched(19,13) matched(34,35) matched(17,20)
Optimization: 369
Answer: 7
matched(2,3) matched(1,7) matched(5,8) matched(9,12) matched(18,16) matched(20,17) matched(16,18) matched(23,22) matched(22,23) matched(28,25) matched(24,26) matched(21,27) matched(27,21) matched(29,30) matched(32,31) matched(31,32) matched(30,29) matched(35,34) matched(36,37) matched(38,39) matched(33,40) matched(6,4) matched(4,6) matched(11,10) matched(12,9) matched(14,15) matched(13,19) matched(26,24) matched(25,28) matched(37,36) matched(39,38) matched(3,2) matched(8,5) matched(7,1) matched(10,11) matched(40,33) matched(15,14) matched(19,13) matched(34,35) matched(17,20)
Optimization: 367
OPTIMUM FOUND

Models       : 7
  Optimum    : yes
Optimization : 367
Calls        : 1
Time         : 0.633s (Solving: 0.22s 1st Model: 0.00s Unsat: 0.17s)
CPU Time     : 0.616s
